
Gurobi 6.0.4 (win64) logging started 06/20/15 12:06:32

Read LP format model from file C:\MT\repository\VRPTWMS\instances\mip\fuel\N8-C_DV100-C_SV30_F6_7_No_1.lp
Reading time = 0.01 seconds
(null): 417 rows, 208 columns, 1715 nonzeros
Optimize a model with 417 rows, 208 columns and 1715 nonzeros
Model has 576 quadratic constraints
Coefficient statistics:
  Matrix range    [1e+00, 1e+06]
  Objective range [3e+04, 1e+07]
  Bounds range    [1e+00, 1e+06]
  RHS range       [1e+00, 1e+06]
Presolve removed 40 rows and 18 columns
Presolve time: 0.08s
Presolved: 1406 rows, 730 columns, 6884 nonzeros
Variable types: 489 continuous, 241 integer (198 binary)
Found heuristic solution: objective 8.279580e+07

Root relaxation: objective 1.336896e+06, 101 iterations, 0.00 seconds

    Nodes    |    Current Node    |     Objective Bounds      |     Work
 Expl Unexpl |  Obj  Depth IntInf | Incumbent    BestBd   Gap | It/Node Time

     0     0 1336896.22    0   30 8.2796e+07 1336896.22  98.4%     -    0s
H    0     0                    7.258090e+07 1336896.22  98.2%     -    0s
     0     0 2321815.49    0   48 7.2581e+07 2321815.49  96.8%     -    0s
H    0     0                    6.265620e+07 2321815.49  96.3%     -    0s
H    0     0                    3.211820e+07 2321815.49  92.8%     -    0s
     0     0 8509780.47    0   55 3.2118e+07 8509780.47  73.5%     -    0s
     0     0 8823617.13    0   47 3.2118e+07 8823617.13  72.5%     -    0s
     0     0 9016365.21    0   47 3.2118e+07 9016365.21  71.9%     -    0s
     0     0 9088885.95    0   56 3.2118e+07 9088885.95  71.7%     -    0s
     0     0 9109233.77    0   67 3.2118e+07 9109233.77  71.6%     -    0s
     0     0 9127506.20    0   66 3.2118e+07 9127506.20  71.6%     -    0s
H    0     0                    3.196740e+07 9127506.20  71.4%     -    0s
H    0     0                    3.137310e+07 9127506.20  70.9%     -    0s
     0     0 9127813.89    0   65 3.1373e+07 9127813.89  70.9%     -    0s
     0     0 9132026.11    0   53 3.1373e+07 9132026.11  70.9%     -    0s
     0     0 9132026.11    0   54 3.1373e+07 9132026.11  70.9%     -    0s
     0     0 9132026.11    0   51 3.1373e+07 9132026.11  70.9%     -    0s
     0     0 9132026.11    0   48 3.1373e+07 9132026.11  70.9%     -    0s
     0     0 9132026.11    0   47 3.1373e+07 9132026.11  70.9%     -    0s
     0     0 9132026.11    0   47 3.1373e+07 9132026.11  70.9%     -    0s
H    0     0                    2.157840e+07 9132026.11  57.7%     -    0s
     0     2 9132026.11    0   47 2.1578e+07 9132026.11  57.7%     -    0s
*   56    23              12    2.151660e+07 9428501.56  56.2%  21.5    0s
* 3121     0              16    2.147950e+07 1.7878e+07  16.8%  21.6    2s
* 3122     0              15    2.145730e+07 1.7878e+07  16.7%  21.6    2s
* 3125     0              13    2.145400e+07 2.1454e+07  0.00%  21.6    2s

Cutting planes:
  Learned: 6
  Gomory: 3
  Cover: 241
  Implied bound: 251
  Clique: 15
  MIR: 69
  GUB cover: 8
  Zero half: 1

Explored 3126 nodes (68405 simplex iterations) in 2.71 seconds
Thread count was 2 (of 4 available processors)

Optimal solution found (tolerance 1.00e-04)
Best objective 2.145400000000e+07, best bound 2.145400000000e+07, gap 0.0%
k_c1	170000.00000000023
k_c2	90000.00000000023
k_c3	20000.0
k_c4	130000.00000000035
k_c5	130000.00000000012
k_c6	40000.00000000023
k_c7	30000.0
k_c8	190000.0
k_dN	-0.0
o_1	-0.0
o_2	0.0
o_3	0.0
o_4	-0.0
o_5	0.0
o_6	-0.0
o_7	0.0
o_8	0.0
p_1	0.0
p_2	-0.0
p_3	0.0
p_4	0.0
p_5	-0.0
p_6	0.0
p_7	0.0
p_8	-0.0
phi_c1	39929.999999999985
phi_c2	30557.999999999985
phi_c3	4489.0
phi_c4	32450.999999999985
phi_c5	38525.00000000003
phi_c6	15461.000000000015
phi_c7	9291.999999999998
phi_c8	51303.0
phi_dN	-0.0
pi_c1	-0.0
pi_c2	-0.0
pi_c3	-0.0
pi_c4	-0.0
pi_c5	-0.0
pi_c6	-0.0
pi_c7	-0.0
pi_c8	-0.0
pi_dN	-0.0
tauD_c1	75000.0
tauD_c2	450000.00000000006
tauD_c3	850000.0
tauD_c4	200000.0
tauD_c5	600000.0
tauD_c6	759000.0
tauD_c7	800000.0
tauD_c8	250000.0
tauD_d0	-0.0
tauD_dN	1000000.0
tauS_c1	845000.0
tauS_c2	858700.0
tauS_c3	903225.0
tauS_c4	41000.0
tauS_c5	24825.0
tauS_c6	45200.0
tauS_c7	885275.0
tauS_c8	15000.0
tauS_d0	-0.0
tauS_dN	1000000.0
x_c1_c4	1.0
x_c2_c7	1.0
x_c3_dN	1.0
x_c4_c2	1.0
x_c5_c6	1.0
x_c6_c3	1.0
x_c7_dN	1.0
x_c8_c5	0.9999999999999999
x_d0_c1	1.0
x_d0_c8	1.0
